YMnO3 Gibbs, beta+                      
   1.00000000000000     
     6.0998188881300193   -0.0001418763593072    0.0005640331212869
    -3.0500323125963660    5.2828109301601467    0.0000000000000018
     0.0010163125658361    0.0005867683334681   11.4204383125055706
   Y    Mn   O 
     6     6    18
Direct
  0.9999731766473943  0.9999498008295973  0.2698877671759590
  0.9999732366473921  0.0000243898178027  0.7698877671759590
  0.3333441238469987  0.6666487297249120  0.2254757655451201
  0.6666519345056656  0.3333319601192599  0.7698544094232957
  0.3333441238469987  0.6666963781220829  0.7254757655451201
  0.6666519345056656  0.3333209873864078  0.2698544094232957
  0.3332193646706898  0.0001768299934000  0.0009324829541342
  0.9996776113475221  0.3331100529774176  0.0009440176508377
  0.6669498009671884  0.6666510191063892  0.0009424953096797
  0.6669498009671884  0.0002997958607978  0.5009424953096797
  0.9996776113475221  0.6665685573701197  0.5009440176508377
  0.3332193646706898  0.3330435476772848  0.5009324829541342
  0.3333746139447129  0.0270092893948259  0.1644862506644600
  0.9728991350188494  0.3061447556201884  0.1644995438945571
  0.6938014457430413  0.6666580520718099  0.1644318868674191
  0.6938014457430413  0.0271443626712298  0.6644318868674191
  0.9728991350188494  0.6667553633986643  0.6644995438945571
  0.3333746139447129  0.3063663525498939  0.6644862506644600
  0.6388945100194334  0.9722315475397920  0.3373744903408777
  0.0276382277675680  0.6666112846772876  0.3372870940652035
  0.3333422514578004  0.3610270760805250  0.3372820036393236
  0.3333422514578004  0.9723161883772775  0.8372820036393236
  0.0276382277675680  0.3610279420902742  0.8372870940652035
  0.6388945100194334  0.6666639164796493  0.8373744903408777
  0.9998824561634407  0.0000076805149547  0.4806756984989349
  0.9998825161634386  0.9998757896485060  0.9806756984989349
  0.3336771436024577  0.6666454634248993  0.0249396783366436
  0.6666690792972361  0.3332115201528509  0.4806864146335315
  0.3336771436024577  0.6670326641775546  0.5249396783366436
  0.6666690792972361  0.3334585721443872  0.9806864146335315
 
  0.00000000E+00  0.00000000E+00  0.00000000E+00
  0.00000000E+00  0.00000000E+00  0.00000000E+00
  0.00000000E+00  0.00000000E+00  0.00000000E+00
  0.00000000E+00  0.00000000E+00  0.00000000E+00
  0.00000000E+00  0.00000000E+00  0.00000000E+00
  0.00000000E+00  0.00000000E+00  0.00000000E+00
  0.00000000E+00  0.00000000E+00  0.00000000E+00
  0.00000000E+00  0.00000000E+00  0.00000000E+00
  0.00000000E+00  0.00000000E+00  0.00000000E+00
  0.00000000E+00  0.00000000E+00  0.00000000E+00
  0.00000000E+00  0.00000000E+00  0.00000000E+00
  0.00000000E+00  0.00000000E+00  0.00000000E+00
  0.00000000E+00  0.00000000E+00  0.00000000E+00
  0.00000000E+00  0.00000000E+00  0.00000000E+00
  0.00000000E+00  0.00000000E+00  0.00000000E+00
  0.00000000E+00  0.00000000E+00  0.00000000E+00
  0.00000000E+00  0.00000000E+00  0.00000000E+00
  0.00000000E+00  0.00000000E+00  0.00000000E+00
  0.00000000E+00  0.00000000E+00  0.00000000E+00
  0.00000000E+00  0.00000000E+00  0.00000000E+00
  0.00000000E+00  0.00000000E+00  0.00000000E+00
  0.00000000E+00  0.00000000E+00  0.00000000E+00
  0.00000000E+00  0.00000000E+00  0.00000000E+00
  0.00000000E+00  0.00000000E+00  0.00000000E+00
  0.00000000E+00  0.00000000E+00  0.00000000E+00
  0.00000000E+00  0.00000000E+00  0.00000000E+00
  0.00000000E+00  0.00000000E+00  0.00000000E+00
  0.00000000E+00  0.00000000E+00  0.00000000E+00
  0.00000000E+00  0.00000000E+00  0.00000000E+00
  0.00000000E+00  0.00000000E+00  0.00000000E+00
