YMnO3 Gibbs, alpha-                     
   1.00000000000000     
     6.0998140072546381   -0.0001423622319821    0.0005641550857645
    -3.0500302929367549    5.2828074320070897    0.0000000000000018
     0.0010164443087222    0.0005868443952588   11.4204515096378145
   Y    Mn   O 
     6     6    18
Direct
  0.9999883051011977  0.0000183826458340  0.2745246967755861
  0.9999883051011977  0.9999699224553709  0.7745246667755836
  0.3333599960773839  0.6667177638797952  0.2301126340516220
  0.6666811268020894  0.3333343413447167  0.7301459483269639
  0.3333599660773814  0.6666422031975969  0.7301126490516197
  0.6666811868020943  0.3333468144573715  0.2301459333269662
  0.3336562774697498  0.0000985925916126  0.9990562115983437
  0.0001135194269182  0.3336240377427018  0.9990679354994825
  0.6663825982074485  0.6663670395244452  0.9990582604744276
  0.6663825982074485  0.0000155586829962  0.4990582604744276
  0.0001135194269182  0.6664894526842176  0.4990679354994825
  0.3336562774697498  0.3335576848781443  0.4990562115983437
  0.3056952163359981  0.0000579746437026  0.1627130808909669
  0.9999900641710724  0.3056378075436967  0.1627185868171850
  0.6944388005681290  0.6944361763018989  0.1626255043310465
  0.6944388005681290  0.0000026242662301  0.6626254893310488
  0.9999900641710724  0.6943522566273757  0.6627185718171873
  0.3056952163359981  0.3056372416922954  0.6627130658909692
  0.6395319767958014  0.0000092904293112  0.3355684039135767
  0.9999577690517825  0.6396583943296861  0.3355143734227610
  0.3604324742000955  0.3605214007325586  0.3355007811862976
  0.3604324742000955  0.9999110734675440  0.8355007811862976
  0.9999577690517825  0.3602993747220964  0.8355143734227610
  0.6395319767958014  0.6395226863664902  0.8355684039135767
  0.9996564288677163  0.0000210997796799  0.4750583542413338
  0.9996564288677163  0.9996353290880364  0.9750583832413398
  0.3334506774431247  0.6666609805139743  0.0193233797671368
  0.6666646804814889  0.3332087095417862  0.5193118767032843
  0.3334506474431223  0.6667896679291516  0.5193233837671372
  0.6666647404814938  0.3334559999396944  0.0193118727032839
 
  0.00000000E+00  0.00000000E+00  0.00000000E+00
  0.00000000E+00  0.00000000E+00  0.00000000E+00
  0.00000000E+00  0.00000000E+00  0.00000000E+00
  0.00000000E+00  0.00000000E+00  0.00000000E+00
  0.00000000E+00  0.00000000E+00  0.00000000E+00
  0.00000000E+00  0.00000000E+00  0.00000000E+00
  0.00000000E+00  0.00000000E+00  0.00000000E+00
  0.00000000E+00  0.00000000E+00  0.00000000E+00
  0.00000000E+00  0.00000000E+00  0.00000000E+00
  0.00000000E+00  0.00000000E+00  0.00000000E+00
  0.00000000E+00  0.00000000E+00  0.00000000E+00
  0.00000000E+00  0.00000000E+00  0.00000000E+00
  0.00000000E+00  0.00000000E+00  0.00000000E+00
  0.00000000E+00  0.00000000E+00  0.00000000E+00
  0.00000000E+00  0.00000000E+00  0.00000000E+00
  0.00000000E+00  0.00000000E+00  0.00000000E+00
  0.00000000E+00  0.00000000E+00  0.00000000E+00
  0.00000000E+00  0.00000000E+00  0.00000000E+00
  0.00000000E+00  0.00000000E+00  0.00000000E+00
  0.00000000E+00  0.00000000E+00  0.00000000E+00
  0.00000000E+00  0.00000000E+00  0.00000000E+00
  0.00000000E+00  0.00000000E+00  0.00000000E+00
  0.00000000E+00  0.00000000E+00  0.00000000E+00
  0.00000000E+00  0.00000000E+00  0.00000000E+00
  0.00000000E+00  0.00000000E+00  0.00000000E+00
  0.00000000E+00  0.00000000E+00  0.00000000E+00
  0.00000000E+00  0.00000000E+00  0.00000000E+00
  0.00000000E+00  0.00000000E+00  0.00000000E+00
  0.00000000E+00  0.00000000E+00  0.00000000E+00
  0.00000000E+00  0.00000000E+00  0.00000000E+00
